p tw 35 42
1 2
2 13
3 4
4 5
4 9
5 6
6 7
6 9
7 8
8 28
9 10
10 11
11 12
11 17
12 14
13 24
14 15
14 17
15 16
16 28
17 18
18 19
19 20
19 21
20 28
21 22
22 23
23 25
23 26
24 30
25 28
26 27
27 28
28 29
30 31
30 35
31 32
32 33
32 35
33 34
34 28
35 3
